words_hard_train/2694.qaiger
aag 31 16 0 1 15
2
4
8
12
14
18
20
28
32
34
38
42
44
48
50
58
63
6 2 4
10 6 9
16 12 14
22 18 21
24 16 22
26 10 24
30 26 28
36 33 35
40 36 39
46 42 45
52 49 50
54 46 53
56 40 54
60 56 59
62 30 60
i0 2 y2[5]
i1 2 y2[2]
i2 1 x2[6]
i3 2 y2[3]
i4 2 y2[7]
i5 2 y2[0]
i6 1 x2[5]
i7 2 y2[6]
i8 1 x2[3]
i9 1 x2[4]
i10 1 x2[7]
i11 2 y2[4]
i12 1 x2[0]
i13 1 x2[1]
i14 2 y2[1]
i15 1 x2[2]
o0 bool[0]
c
simplified
  !=
    or
      invert
        2 y2
      1 x2
    add
      1
      1
