words_hard_train/2694.qaiger.qdimacs
p cnf 31 46
a 4 10 16 17 19 22 24 29 0
e 1 2 3 5 6 7 8 9 11 12 13 14 15 18 20 21 23 25 26 27 28 30 31 0
-1 -2 3 0
1 -3 0
2 -3 0
-3 4 5 0
3 -5 0
-4 -5 0
-6 -7 8 0
6 -8 0
7 -8 0
-9 10 11 0
9 -11 0
-10 -11 0
-8 -11 12 0
8 -12 0
11 -12 0
-5 -12 13 0
5 -13 0
12 -13 0
-13 -14 15 0
13 -15 0
14 -15 0
16 17 18 0
-16 -18 0
-17 -18 0
-18 19 20 0
18 -20 0
-19 -20 0
-21 22 23 0
21 -23 0
-22 -23 0
24 -25 26 0
-24 -26 0
25 -26 0
-23 26 27 0
23 -27 0
-26 -27 0
-20 -27 28 0
20 -28 0
27 -28 0
-28 29 30 0
28 -30 0
-29 -30 0
-15 -30 31 0
15 -31 0
30 -31 0
-31 0
